
Log started (V12.10.0.0) Fri Apr  2 11:23:21 2021

Warning, line 1396: Name 's137' does not exist.
Warning, line 1398: Name 's101' does not exist.
Warning, line 1399: Name 's34' does not exist.
Warning, line 1400: Name 's123' does not exist.
Warning, line 1401: Name 's69' does not exist.
Warning, line 1402: Name 's52' does not exist.
Warning, line 1403: Name 's74' does not exist.

Problem 'asset.lp' read.
Read time = 0.00 sec. (0.10 ticks)
New value for default parallel thread count: 1
New value for time limit in seconds: 400
Version identifier: 12.10.0.0 | 2019-11-26 | 843d4de
CPXPARAM_Threads                                 1
CPXPARAM_TimeLimit                               400
Found incumbent of value -0.864536 after 0.00 sec. (0.05 ticks)
Tried aggregator 6 times.
MIP Presolve eliminated 656 rows and 254 columns.
MIP Presolve modified 1107 coefficients.
Aggregator did 252 substitutions.
Reduced MIP has 195 rows, 238 columns, and 722 nonzeros.
Reduced MIP has 171 binaries, 44 generals, 0 SOSs, and 0 indicators.
Presolve time = 0.01 sec. (5.14 ticks)
Probing fixed 40 vars, tightened 18 bounds.
Probing time = 0.00 sec. (0.28 ticks)
Cover probing fixed 0 vars, tightened 20 bounds.
Tried aggregator 2 times.
MIP Presolve eliminated 113 rows and 118 columns.
MIP Presolve modified 4 coefficients.
Aggregator did 3 substitutions.
Reduced MIP has 79 rows, 115 columns, and 259 nonzeros.
Reduced MIP has 87 binaries, 15 generals, 0 SOSs, and 0 indicators.
Presolve time = 0.00 sec. (0.60 ticks)
Probing time = 0.00 sec. (0.08 ticks)
Tried aggregator 1 time.
Detecting symmetries...
Reduced MIP has 79 rows, 115 columns, and 259 nonzeros.
Reduced MIP has 87 binaries, 15 generals, 0 SOSs, and 0 indicators.
Presolve time = 0.00 sec. (0.19 ticks)
Probing time = 0.00 sec. (0.08 ticks)
Clique table members: 92.
MIP emphasis: balance optimality and feasibility.
MIP search method: dynamic search.
Parallel mode: none, using 1 thread.
Root relaxation solution time = 0.00 sec. (0.29 ticks)

        Nodes                                         Cuts/
   Node  Left     Objective  IInf  Best Integer    Best Bound    ItCnt     Gap

*     0+    0                           -0.8645      769.6086              --- 
      0     0      251.1279    15       -0.8645      251.1279       40     --- 
*     0+    0                          231.4043      251.1279             8.52%
      0     0      249.6939    15      231.4043      Cuts: 20       52    7.90%
      0     0      247.8338    15      231.4043       Cuts: 5       54    7.10%
      0     0      246.2692    15      231.4043       Cuts: 4       58    6.42%
      0     0      246.2686    15      231.4043   ZeroHalf: 5       60    6.42%
      0     0      246.2686    15      231.4043   ZeroHalf: 1       63    6.42%
Detecting symmetries...
Detecting symmetries...
      0     2      246.2686    23      231.4043      246.1671       63    6.38%
Elapsed time = 0.02 sec. (12.67 ticks, tree = 0.01 MB, solutions = 1)
*    10+    9                          231.4460      242.6316             4.83%
*    38    17      integral     0      231.6468      242.2159      216    4.56%
*   102    33      integral     0      232.2880      239.3012      423    3.02%
*   129    30      integral     0      233.0132      237.5448      496    1.94%

Clique cuts applied:  1
Cover cuts applied:  6
Implied bound cuts applied:  6
Zero-half cuts applied:  9
Lift and project cuts applied:  1
Gomory fractional cuts applied:  7

Root node processing (before b&c):
  Real time             =    0.02 sec. (12.71 ticks)
Sequential b&c:
  Real time             =    0.02 sec. (11.67 ticks)
                          ------------
Total (root+branch&cut) =    0.04 sec. (24.39 ticks)

Solution pool: 6 solutions saved.

MIP - Integer optimal solution:  Objective =  2.3301318509e+02
Solution time =    0.04 sec.  Iterations = 562  Nodes = 171
Deterministic time = 24.39 ticks  (686.53 ticks/sec)


Incumbent solution
Variable Name           Solution Value
F                           240.000000
f1                            0.876815
f2                            6.110000
y230                          1.000000
y18                           1.000000
y207                          1.000000
y269                          1.000000
y149                          1.000000
y265                          1.000000
s88                           4.270000
s291                          4.270000
s272                          4.290000
s177                          4.300000
s176                          4.320000
s209                          4.320000
s24                           4.360000
s233                          4.370000
s250                          4.390000
s295                          4.390000
s109                          4.400000
s230                          4.925593
s113                          4.410000
s200                          4.410000
s114                          4.420000
s115                          4.420000
s259                          4.430000
s19                           4.450000
s22                           4.460000
s41                           4.460000
s56                           4.470000
s150                          4.530000
s147                          4.710000
s59                           4.770000
s18                           5.318396
s207                          5.817760
s269                          5.664274
s1                            5.160000
s136                          5.370000
s174                          5.430000
s149                          5.937062
s206                          5.530000
s8                            5.590000
s122                          5.710000
s237                          5.760000
s93                           5.840000
s219                          5.870000
s16                           5.890000
s265                          5.910000
s226                          5.960000
x132x149x1                    2.000000
x271x18x1                     2.000000
x185x265x1                    1.000000
x154x269x2                    1.000000
x144x207x2                    2.000000
x185x269x2                    1.000000
x12x265x3                     1.000000
x61x230x3                     2.000000
x230x0x3                      2.000000
x18x0x1                       2.000000
x207x0x2                      2.000000
x269x0x2                      2.000000
x149x0x1                      2.000000
x265x0x1                      1.000000
x265x0x3                      1.000000
s154                          3.741744
z154z269z2                    1.000000
z154z174z2                    1.000000
z154z206z2                    1.000000
z154z237z2                    1.000000
z154z93z2                     1.000000
s132                          4.577025
z132z149z1                    1.000000
z132z226z1                    1.000000
s12                           4.207522
z12z265z3                     1.000000
s61                           3.495490
z61z230z3                     1.000000
z61z1z3                       1.000000
s144                          3.987120
z144z207z2                    1.000000
s271                          3.914810
z271z18z1                     1.000000
z271z149z1                    1.000000
z271z122z1                    1.000000
z271z226z1                    1.000000
s185                          4.041940
z185z269z2                    1.000000
z185z122z1                    1.000000
z185z237z2                    1.000000
z185z93z2                     1.000000
z185z265z1                    1.000000
z185z226z1                    1.000000
z291z122z1                    1.000000
z291z226z1                    1.000000
z22z226z1                     1.000000
All other variables in the range 1-761 are 0.
